
        $ From http://www.csplib.org/Problems/prob009/data/helmut.pdf
        $ Problem number 175
        $ Sequence length : 25
        language ESSENCE' 1.0
        letting sizemaster be 549
        letting sizes be sequence(4,10,14,24,26,31,34,36,38,40,43,48,59,63,74,89,97,105,117,124,136,152,156,241,308)
        